File : Instances/p40
Use 116 s

13348

0 0 0 0 0 0 0 0 0 0 0 1 0 0 1 0 0 1 0 0 1 0 0 0 1 0 0 0 0 0 
20 11 20 14 20 11 14 24 14 17 24 20 20 20 14 14 14 17 11 11 14 17 24 17 24 20 17 24 24 24 11 11 20 11 20 20 24 24 17 14 17 14 24 14 24 14 14 20 11 14 11 14 14 11 20 20 17 11 11 14 17 24 20 11 11 11 24 17 24 24 20 20 11 17 24 20 24 20 14 24 20 17 20 17 17 17 17 17 20 24 17 24 17 11 17 24 14 14 11 20 20 17 17 11 14 11 17 11 14 14 14 14 17 11 11 11 24 24 24 24 11 14 11 20 20 17 11 24 17 11 17 11 24 24 14 14 17 11 20 17 17 20 20 14 20 11 11 11 17 24 
